
Gurobi 7.5.2 (win64, Python) logging started 09/28/19 19:38:35

Academic license - for non-commercial use only

Gurobi 7.5.2 (win64, Python) logging started 09/28/19 19:41:52

Academic license - for non-commercial use only

Gurobi 7.5.2 (win64, Python) logging started 09/28/19 19:42:35

Academic license - for non-commercial use only

Gurobi 7.5.2 (win64, Python) logging started 09/28/19 19:43:05

Academic license - for non-commercial use only

Gurobi 7.5.2 (win64, Python) logging started 09/28/19 19:43:31

Academic license - for non-commercial use only

Gurobi 7.5.2 (win64, Python) logging started 09/28/19 19:43:37

Academic license - for non-commercial use only

Gurobi 7.5.2 (win64, Python) logging started 09/28/19 19:43:47

Academic license - for non-commercial use only

Gurobi 7.5.2 (win64, Python) logging started 09/28/19 19:45:15

Academic license - for non-commercial use only

Gurobi 7.5.2 (win64, Python) logging started 09/28/19 19:48:54

Academic license - for non-commercial use only
